(set-info :smt-lib-version 2.6)
(set-logic UFLIA)
(set-info :source |
Generated by: Geoff Sutcliffe
Generated on: 2026-03-11
Generator: TPTPWorld
Application: Benchmarking automated theorem provers
Time limit: 120.0

These benchmarks are translations from the TPTP Library (Thousands of
Problems for Theorem Provers), see http://www.cs.miami.edu/~tptp/

The TPTP is maintained by Geoff Sutcliffe, and he contributed this
selection of benchmarks to SMT-LIB.  They were exported from the
v9.2.1 realease of TPTP.
|)
(set-info :category "industrial")
(set-info :status "unknown")
; SZS status Success
(declare-sort $$unsorted 0)
(declare-sort |tptp.'Tree'| 0)
(declare-fun |tptp.'empty:Tree'| () |tptp.'Tree'|)
(declare-fun |tptp.'left:(Tree)>Tree'| (|tptp.'Tree'|) |tptp.'Tree'|)
(declare-fun |tptp.'val:(Tree)>Int'| (|tptp.'Tree'|) Int)
(declare-fun |tptp.'node:(Int*Tree*Tree)>Tree'| (Int |tptp.'Tree'| |tptp.'Tree'|) |tptp.'Tree'|)
(declare-fun |tptp.'right:(Tree)>Tree'| (|tptp.'Tree'|) |tptp.'Tree'|)
(assert (forall ((X |tptp.'Tree'|)) (or (= X |tptp.'empty:Tree'|) (= X (|tptp.'node:(Int*Tree*Tree)>Tree'| (|tptp.'val:(Tree)>Int'| X) (|tptp.'left:(Tree)>Tree'| X) (|tptp.'right:(Tree)>Tree'| X))))))
(assert (forall ((X_1_0 Int) (X_1_1 |tptp.'Tree'|) (X_1_2 |tptp.'Tree'|)) (= (|tptp.'val:(Tree)>Int'| (|tptp.'node:(Int*Tree*Tree)>Tree'| X_1_0 X_1_1 X_1_2)) X_1_0)))
(assert (forall ((X_1_0 Int) (X_1_1 |tptp.'Tree'|) (X_1_2 |tptp.'Tree'|)) (= (|tptp.'left:(Tree)>Tree'| (|tptp.'node:(Int*Tree*Tree)>Tree'| X_1_0 X_1_1 X_1_2)) X_1_1)))
(assert (forall ((X_1_0 Int) (X_1_1 |tptp.'Tree'|) (X_1_2 |tptp.'Tree'|)) (= (|tptp.'right:(Tree)>Tree'| (|tptp.'node:(Int*Tree*Tree)>Tree'| X_1_0 X_1_1 X_1_2)) X_1_2)))
(assert (forall ((X_1_0 Int) (X_1_1 |tptp.'Tree'|) (X_1_2 |tptp.'Tree'|)) (not (= |tptp.'empty:Tree'| (|tptp.'node:(Int*Tree*Tree)>Tree'| X_1_0 X_1_1 X_1_2)))))
(declare-fun tptp.searchtree (|tptp.'Tree'|) Bool)
(declare-fun tptp.in (Int |tptp.'Tree'|) Bool)
(assert (forall ((V Int) (T |tptp.'Tree'|)) (let ((_let_1 (= T |tptp.'empty:Tree'|))) (= (tptp.in V T) (and (=> _let_1 false) (=> (not _let_1) (or (= V (|tptp.'val:(Tree)>Int'| T)) (tptp.in V (|tptp.'left:(Tree)>Tree'| T)) (tptp.in V (|tptp.'right:(Tree)>Tree'| T)))))))))
(assert (forall ((T |tptp.'Tree'|)) (let ((_let_1 (= T |tptp.'empty:Tree'|))) (= (tptp.searchtree T) (and (=> _let_1 true) (=> (not _let_1) (and (tptp.searchtree (|tptp.'left:(Tree)>Tree'| T)) (tptp.searchtree (|tptp.'right:(Tree)>Tree'| T)) (forall ((V Int)) (=> (tptp.in V (|tptp.'left:(Tree)>Tree'| T)) (<= V (|tptp.'val:(Tree)>Int'| T)))) (forall ((V Int)) (=> (tptp.in V (|tptp.'right:(Tree)>Tree'| T)) (> V (|tptp.'val:(Tree)>Int'| T)))))))))))
(assert (not (forall ((T |tptp.'Tree'|) (V Int)) (let ((_let_1 (|tptp.'val:(Tree)>Int'| T))) (let ((_let_2 (< V _let_1))) (let ((_let_3 (= V _let_1))) (let ((_let_4 (= T |tptp.'empty:Tree'|))) (=> (tptp.searchtree T) (= (and (=> _let_4 false) (=> (not _let_4) (and (=> _let_3 true) (=> (not _let_3) (and (=> _let_2 (exists ((T_3 |tptp.'Tree'|)) (and (= T_3 (|tptp.'left:(Tree)>Tree'| T)) (tptp.in V T_3)))) (=> (not _let_2) (exists ((T_5 |tptp.'Tree'|)) (and (= T_5 (|tptp.'right:(Tree)>Tree'| T)) (tptp.in V T_5))))))))) (tptp.in V T))))))))))
(check-sat)
(exit)
